NAME : n60w60.001.722.tour
COMMENT : Length = 722
COMMENT : Found by LKH [Keld Helsgaun] Tue Nov  7 19:35:18 2017
TYPE : TOUR
DIMENSION : 61
TOUR_SECTION
1
50
27
40
9
17
8
35
47
53
3
20
21
26
34
15
30
13
57
54
28
46
39
38
31
29
48
43
2
41
33
19
23
12
36
5
18
49
22
52
32
10
25
45
6
44
55
59
37
51
16
4
11
60
42
58
56
24
61
14
7
-1
EOF
